NAME : tsp_289_sol.txt
COMMENT : OR-Tools Guided Local Search
TYPE : TOUR
DIMENSION : 50
COST : 5529
STATUS : ROUTING_SUCCESS
GAP : 0.00% (Reference Solution)
TOUR_SECTION
1
33
13
38
49
46
44
12
28
40
34
37
23
17
21
6
3
26
14
48
20
7
43
27
16
11
9
15
32
10
24
29
19
25
45
5
22
47
36
2
41
35
4
30
42
39
8
31
18
50
-1
